p cnf 23 10
e 1 0
a 2 0
e 3 0
a 4 0
e 5 6 0
a 7 0
e 8 0
a 9 10 0
e 11 0
a 12 13 14 0
e 15 16 17 18 0
a 19 20 21 0
e 22 0
a 23 0
9 -13 -10 0
-22 -10 3 21 0
6 5 13 -15 -10 0
16 5 -1 0
1 -5 7 -4 11 0
8 -22 14 -11 0
6 -14 -10 23 0
7 16 0
14 -1 -15 -10 0
12 -7 -10 -8 -5 0
